SECTION Graph
Nodes 465
Edges 955
E 1 2 1
E 1 406 7
E 1 410 2
E 1 416 11
E 2 3 14
E 2 412 2
E 2 418 11
E 3 4 1
E 3 420 2
E 3 423 11
E 4 422 2
E 4 424 11
E 5 6 1
E 5 165 3
E 6 7 14
E 6 166 3
E 7 8 1
E 7 167 3
E 8 168 3
E 8 170 7
E 9 10 1
E 9 24 7
E 9 392 3
E 9 409 20
E 10 11 14
E 10 394 3
E 10 411 20
E 11 12 1
E 11 402 3
E 11 419 20
E 12 404 3
E 12 421 20
E 13 14 1
E 13 407 2
E 14 15 14
E 14 408 2
E 15 16 1
E 15 415 2
E 16 417 2
E 17 18 1
E 17 48 7
E 17 391 1
E 17 395 2
E 18 19 14
E 18 393 1
E 18 396 2
E 19 20 1
E 19 401 1
E 19 405 2
E 20 403 1
E 20 406 2
E 20 410 7
E 21 22 1
E 21 52 7
E 21 372 3
E 21 391 20
E 22 23 14
E 22 374 3
E 22 393 20
E 23 24 1
E 23 386 3
E 23 401 20
E 24 388 3
E 24 403 20
E 25 26 1
E 25 330 7
E 25 332 6
E 25 343 2
E 26 27 14
E 26 334 6
E 26 346 2
E 27 28 1
E 27 351 6
E 27 366 2
E 28 353 6
E 28 369 2
E 29 30 1
E 29 33 23
E 29 60 7
E 29 332 15
E 30 31 14
E 30 34 23
E 30 334 15
E 31 32 1
E 31 35 23
E 31 351 15
E 32 36 23
E 32 353 15
E 33 34 1
E 33 37 21
E 33 64 7
E 34 35 14
E 34 38 21
E 35 36 1
E 35 39 21
E 36 40 21
E 37 38 1
E 38 39 14
E 39 40 1
E 41 42 1
E 41 68 7
E 41 383 8
E 42 43 14
E 42 384 8
E 43 44 1
E 43 397 8
E 44 398 8
E 44 407 7
E 45 46 1
E 45 72 7
E 45 371 1
E 45 375 2
E 46 47 14
E 46 373 1
E 46 376 2
E 47 48 1
E 47 385 1
E 47 389 2
E 48 387 1
E 48 390 2
E 49 50 1
E 49 76 7
E 49 338 3
E 49 371 20
E 50 51 14
E 50 340 3
E 50 373 20
E 51 52 1
E 51 360 3
E 51 385 20
E 52 362 3
E 52 387 20
E 53 54 1
E 53 80 7
E 53 304 2
E 53 338 18
E 54 55 14
E 54 306 2
E 54 340 18
E 55 56 1
E 55 328 2
E 55 360 18
E 56 330 2
E 56 343 7
E 56 362 18
E 57 58 1
E 57 61 23
E 57 84 7
E 57 294 15
E 58 59 14
E 58 62 23
E 58 296 15
E 59 60 1
E 59 63 23
E 59 316 15
E 60 64 23
E 60 318 15
E 61 62 1
E 61 88 7
E 62 63 14
E 63 64 1
E 65 66 1
E 65 357 7
E 65 365 2
E 66 67 14
E 66 368 2
E 67 68 1
E 67 379 2
E 68 381 2
E 69 70 1
E 69 326 7
E 69 337 1
E 69 341 2
E 70 71 14
E 70 339 1
E 70 342 2
E 71 72 1
E 71 359 1
E 71 363 2
E 72 361 1
E 72 364 2
E 73 74 1
E 73 292 7
E 73 298 3
E 73 337 20
E 74 75 14
E 74 301 3
E 74 339 20
E 75 76 1
E 75 322 3
E 75 359 20
E 76 325 3
E 76 361 20
E 77 78 1
E 77 258 8
E 77 259 7
E 77 298 18
E 78 79 14
E 78 260 8
E 78 301 18
E 79 80 1
E 79 279 8
E 79 322 18
E 80 280 8
E 80 325 18
E 81 82 1
E 81 222 7
E 81 232 2
E 81 258 15
E 82 83 14
E 82 235 2
E 82 260 15
E 83 84 1
E 83 254 2
E 83 279 15
E 84 256 2
E 84 280 15
E 85 86 1
E 85 194 7
E 85 232 21
E 86 87 14
E 86 235 21
E 87 88 1
E 87 254 21
E 88 256 21
E 89 90 1
E 89 335 6
E 90 336 6
E 90 349 6
E 91 92 1
E 91 354 6
E 91 355 6
E 92 357 6
E 93 94 1
E 93 178 21
E 93 188 7
E 93 203 2
E 94 95 14
E 94 180 21
E 94 204 2
E 95 96 1
E 95 191 21
E 95 219 2
E 96 194 21
E 96 222 2
E 96 232 7
E 97 98 1
E 97 178 2
E 98 99 14
E 98 180 2
E 99 100 1
E 99 191 2
E 100 194 2
E 101 102 6
E 101 103 2
E 101 312 11
E 101 320 6
E 102 104 2
E 102 333 6
E 102 344 2
E 103 104 6
E 103 315 11
E 103 345 6
E 104 348 2
E 104 350 6
E 105 106 1
E 105 263 22
E 105 293 2
E 106 107 14
E 106 295 2
E 107 108 1
E 107 314 2
E 108 317 2
E 108 335 7
E 109 110 1
E 109 252 7
E 109 264 1
E 109 269 2
E 110 111 14
E 110 267 1
E 110 271 2
E 111 112 1
E 111 284 1
E 111 289 2
E 112 287 1
E 112 291 2
E 112 299 7
E 113 114 1
E 113 216 7
E 113 225 3
E 113 262 19
E 114 115 14
E 114 229 3
E 114 265 19
E 115 116 1
E 115 247 3
E 115 282 19
E 116 251 3
E 116 270 7
E 116 285 19
E 117 118 1
E 117 190 8
E 117 192 7
E 117 223 17
E 118 119 14
E 118 193 8
E 118 226 17
E 119 120 1
E 119 205 8
E 119 244 17
E 120 207 8
E 120 236 7
E 120 248 17
E 121 122 1
E 121 174 2
E 121 190 15
E 122 123 14
E 122 176 2
E 122 193 15
E 123 124 1
E 123 186 2
E 123 205 15
E 124 188 2
E 124 203 7
E 124 207 15
E 125 126 1
E 125 174 21
E 126 127 14
E 126 176 21
E 127 128 1
E 127 186 21
E 128 178 7
E 128 188 21
E 129 130 1
E 129 231 17
E 129 242 7
E 129 261 2
E 130 131 14
E 130 233 17
E 130 263 2
E 131 132 1
E 131 273 6
E 132 274 6
E 132 293 7
E 133 134 1
E 133 201 19
E 133 211 7
E 133 224 1
E 134 135 14
E 134 202 19
E 134 228 1
E 135 136 1
E 135 215 19
E 135 246 1
E 136 216 19
E 136 250 1
E 136 262 7
E 137 138 1
E 137 177 17
E 137 183 7
E 137 198 1
E 138 139 14
E 138 179 17
E 138 200 1
E 139 140 1
E 139 189 17
E 139 212 1
E 140 192 17
E 140 214 1
E 140 223 7
E 141 142 1
E 141 177 8
E 142 143 14
E 142 179 8
E 143 144 1
E 143 189 8
E 144 190 7
E 144 192 8
E 145 146 1
E 145 187 7
E 145 196 3
E 145 217 17
E 146 147 14
E 146 199 3
E 146 220 17
E 147 148 1
E 147 210 3
E 147 239 17
E 148 213 3
E 148 231 7
E 148 242 17
E 149 150 1
E 149 168 7
E 149 170 3
E 149 195 19
E 150 151 14
E 150 172 3
E 150 197 19
E 151 152 1
E 151 182 3
E 151 208 19
E 152 184 3
E 152 201 7
E 152 211 19
E 153 154 1
E 153 169 17
E 154 155 14
E 154 171 17
E 155 156 1
E 155 181 17
E 156 177 7
E 156 183 17
E 157 158 1
E 157 173 20
E 158 159 14
E 158 175 20
E 159 160 1
E 159 185 20
E 160 187 20
E 160 217 10
E 160 261 31
E 161 162 1
E 161 165 20
E 161 173 3
E 162 163 14
E 162 166 20
E 162 175 3
E 163 164 1
E 163 167 20
E 163 185 3
E 164 168 20
E 164 187 3
E 164 196 7
E 165 166 1
E 166 167 14
E 167 168 1
E 169 170 1
E 169 171 1
E 170 172 1
E 171 172 1
E 171 181 14
E 172 182 14
E 173 175 1
E 174 176 1
E 175 185 14
E 176 186 14
E 177 179 1
E 178 180 1
E 179 189 14
E 180 191 14
E 181 182 1
E 181 183 1
E 182 184 1
E 183 184 1
E 184 198 7
E 185 187 1
E 186 188 1
E 189 192 1
E 190 193 1
E 191 194 1
E 193 205 14
E 195 196 1
E 195 197 1
E 196 199 1
E 197 199 1
E 197 208 14
E 198 200 1
E 198 201 3
E 199 210 14
E 200 202 3
E 200 212 14
E 201 202 1
E 202 215 14
E 203 204 1
E 203 218 15
E 204 206 6
E 204 221 15
E 205 207 1
E 206 209 2
E 206 234 15
E 207 218 7
E 208 210 1
E 208 211 1
E 209 219 6
E 209 238 15
E 210 213 1
E 211 213 1
E 212 214 1
E 212 215 3
E 213 224 7
E 214 216 3
E 214 225 7
E 215 216 1
E 217 220 1
E 218 221 1
E 218 236 8
E 219 222 1
E 219 241 15
E 220 239 14
E 221 234 6
E 221 237 8
E 222 243 15
E 223 225 1
E 223 226 1
E 224 227 1
E 224 228 1
E 225 229 1
E 226 229 1
E 226 244 14
E 227 230 1
E 227 231 2
E 228 230 1
E 228 246 14
E 229 247 14
E 230 233 2
E 230 249 14
E 231 233 1
E 232 235 1
E 233 253 14
E 234 238 2
E 234 240 8
E 235 254 14
E 236 237 1
E 236 266 18
E 237 240 6
E 237 268 18
E 238 241 6
E 238 245 8
E 239 242 1
E 240 245 2
E 240 275 18
E 241 243 1
E 241 257 8
E 243 258 7
E 243 259 8
E 244 247 1
E 244 248 1
E 245 257 6
E 245 276 18
E 246 249 1
E 246 250 1
E 247 251 1
E 248 251 1
E 249 252 1
E 249 253 2
E 250 252 1
E 250 264 7
E 251 266 7
E 252 255 2
E 253 255 1
E 253 273 11
E 254 256 1
E 255 269 7
E 255 274 11
E 257 259 1
E 257 286 18
E 258 260 1
E 259 288 18
E 260 279 14
E 261 263 1
E 262 264 1
E 262 265 1
E 264 267 1
E 265 267 1
E 265 282 14
E 266 268 1
E 266 270 3
E 267 284 14
E 268 272 3
E 268 275 6
E 269 271 1
E 269 281 11
E 270 272 1
E 270 297 20
E 271 283 11
E 271 289 14
E 272 277 6
E 272 300 20
E 273 274 1
E 274 281 7
E 275 276 2
E 275 277 3
E 276 278 3
E 276 286 6
E 277 278 2
E 277 309 20
E 278 290 6
E 278 311 20
E 279 280 1
E 280 294 7
E 281 283 1
E 281 293 6
E 282 284 1
E 282 285 1
E 283 295 6
E 283 307 14
E 284 287 1
E 285 287 1
E 286 288 1
E 286 290 3
E 287 297 7
E 288 292 3
E 288 298 7
E 289 291 1
E 289 307 11
E 290 292 1
E 290 321 20
E 291 303 7
E 291 308 11
E 292 324 20
E 293 295 1
E 294 296 1
E 294 304 6
E 295 314 14
E 296 306 6
E 296 316 14
E 297 299 1
E 297 300 1
E 298 301 1
E 299 302 1
E 299 303 2
E 300 302 1
E 300 309 6
E 301 322 14
E 302 305 2
E 302 310 6
E 303 305 1
E 303 319 11
E 304 306 1
E 305 312 6
E 305 320 11
E 306 328 14
E 307 308 1
E 307 314 6
E 308 317 6
E 308 319 7
E 309 310 1
E 309 311 2
E 310 312 2
E 310 313 2
E 311 313 1
E 311 321 6
E 312 315 2
E 313 315 2
E 313 323 6
E 314 317 1
E 315 327 6
E 316 318 1
E 316 328 6
E 317 331 7
E 318 330 6
E 318 332 7
E 319 320 1
E 319 331 6
E 320 333 6
E 321 323 1
E 321 324 1
E 322 325 1
E 323 326 1
E 323 327 2
E 324 326 1
E 324 337 7
E 325 338 7
E 326 329 2
E 327 329 1
E 327 345 11
E 328 330 1
E 329 341 7
E 329 347 11
E 331 333 1
E 331 335 2
E 332 334 1
E 333 336 2
E 334 351 14
E 335 336 1
E 336 344 6
E 337 339 1
E 338 340 1
E 339 359 14
E 340 360 14
E 341 342 1
E 341 356 11
E 342 358 11
E 342 363 14
E 343 346 1
E 343 372 18
E 344 348 2
E 344 349 6
E 345 347 1
E 345 350 6
E 346 366 14
E 346 374 18
E 347 352 6
E 347 356 7
E 348 354 6
E 348 355 6
E 349 354 2
E 350 352 1
E 350 355 2
E 351 353 1
E 352 357 2
E 352 365 7
E 353 367 7
E 355 357 1
E 356 358 1
E 356 365 6
E 358 368 6
E 358 377 14
E 359 361 1
E 360 362 1
E 361 371 7
E 362 372 7
E 363 364 1
E 363 377 11
E 364 375 7
E 364 378 11
E 365 368 1
E 366 369 1
E 366 386 18
E 367 370 1
E 367 392 26
E 368 379 14
E 369 388 18
E 370 380 14
E 370 394 26
E 371 373 1
E 372 374 1
E 373 385 14
E 374 386 14
E 375 376 1
E 375 383 11
E 376 384 11
E 376 389 14
E 377 378 1
E 377 379 6
E 378 381 6
E 378 383 7
E 379 381 1
E 380 382 1
E 380 402 26
E 382 404 26
E 383 384 1
E 384 397 14
E 385 387 1
E 386 388 1
E 387 391 7
E 388 392 7
E 389 390 1
E 389 397 11
E 390 395 7
E 390 398 11
E 391 393 1
E 392 394 1
E 393 401 14
E 394 402 14
E 395 396 1
E 395 399 11
E 396 400 11
E 396 405 14
E 397 398 1
E 398 399 7
E 399 400 1
E 399 407 8
E 400 408 8
E 400 413 14
E 401 403 1
E 402 404 1
E 403 409 7
E 405 406 1
E 405 413 11
E 406 414 11
E 407 408 1
E 408 415 14
E 409 410 1
E 409 411 1
E 410 412 1
E 411 412 1
E 411 419 14
E 412 420 14
E 413 414 1
E 413 415 8
E 414 416 7
E 414 417 8
E 415 417 1
E 416 418 1
E 418 423 14
E 419 420 1
E 419 421 1
E 420 422 1
E 421 422 1
E 423 424 1
E 1 425 100000
E 2 425 100000
E 3 425 100000
E 4 425 100000
E 5 426 100000
E 6 426 100000
E 7 426 100000
E 8 426 100000
E 9 427 100000
E 10 427 100000
E 11 427 100000
E 12 427 100000
E 13 428 100000
E 14 428 100000
E 15 428 100000
E 16 428 100000
E 17 429 100000
E 18 429 100000
E 19 429 100000
E 20 429 100000
E 21 430 100000
E 22 430 100000
E 23 430 100000
E 24 430 100000
E 25 431 100000
E 26 431 100000
E 27 431 100000
E 28 431 100000
E 29 432 100000
E 30 432 100000
E 31 432 100000
E 32 432 100000
E 33 433 100000
E 34 433 100000
E 35 433 100000
E 36 433 100000
E 37 434 100000
E 38 434 100000
E 39 434 100000
E 40 434 100000
E 41 435 100000
E 42 435 100000
E 43 435 100000
E 44 435 100000
E 45 436 100000
E 46 436 100000
E 47 436 100000
E 48 436 100000
E 49 437 100000
E 50 437 100000
E 51 437 100000
E 52 437 100000
E 53 438 100000
E 54 438 100000
E 55 438 100000
E 56 438 100000
E 57 439 100000
E 58 439 100000
E 59 439 100000
E 60 439 100000
E 61 440 100000
E 62 440 100000
E 63 440 100000
E 64 440 100000
E 65 441 100000
E 66 441 100000
E 67 441 100000
E 68 441 100000
E 69 442 100000
E 70 442 100000
E 71 442 100000
E 72 442 100000
E 73 443 100000
E 74 443 100000
E 75 443 100000
E 76 443 100000
E 77 444 100000
E 78 444 100000
E 79 444 100000
E 80 444 100000
E 81 445 100000
E 82 445 100000
E 83 445 100000
E 84 445 100000
E 85 446 100000
E 86 446 100000
E 87 446 100000
E 88 446 100000
E 89 447 100000
E 90 447 100000
E 91 447 100000
E 92 447 100000
E 93 448 100000
E 94 448 100000
E 95 448 100000
E 96 448 100000
E 97 449 100000
E 98 449 100000
E 99 449 100000
E 100 449 100000
E 101 450 100000
E 102 450 100000
E 103 450 100000
E 104 450 100000
E 105 451 100000
E 106 451 100000
E 107 451 100000
E 108 451 100000
E 109 452 100000
E 110 452 100000
E 111 452 100000
E 112 452 100000
E 113 453 100000
E 114 453 100000
E 115 453 100000
E 116 453 100000
E 117 454 100000
E 118 454 100000
E 119 454 100000
E 120 454 100000
E 121 455 100000
E 122 455 100000
E 123 455 100000
E 124 455 100000
E 125 456 100000
E 126 456 100000
E 127 456 100000
E 128 456 100000
E 129 457 100000
E 130 457 100000
E 131 457 100000
E 132 457 100000
E 133 458 100000
E 134 458 100000
E 135 458 100000
E 136 458 100000
E 137 459 100000
E 138 459 100000
E 139 459 100000
E 140 459 100000
E 141 460 100000
E 142 460 100000
E 143 460 100000
E 144 460 100000
E 145 461 100000
E 146 461 100000
E 147 461 100000
E 148 461 100000
E 149 462 100000
E 150 462 100000
E 151 462 100000
E 152 462 100000
E 153 463 100000
E 154 463 100000
E 155 463 100000
E 156 463 100000
E 157 464 100000
E 158 464 100000
E 159 464 100000
E 160 464 100000
E 161 465 100000
E 162 465 100000
E 163 465 100000
E 164 465 100000
END

SECTION Terminals
Terminals 41
T 425
T 426
T 427
T 428
T 429
T 430
T 431
T 432
T 433
T 434
T 435
T 436
T 437
T 438
T 439
T 440
T 441
T 442
T 443
T 444
T 445
T 446
T 447
T 448
T 449
T 450
T 451
T 452
T 453
T 454
T 455
T 456
T 457
T 458
T 459
T 460
T 461
T 462
T 463
T 464
T 465
END

SECTION Tree Decomposition
c We do not guarantee that this tree decomposition has minimum width.
s td 380 19 465
b 1 382 380 404
b 2 424 423 4
b 3 37 434 38 33
b 4 92 447 91 357
b 5 89 447 90 335
b 6 380 404 402 370
b 7 97 449 98 178
b 8 100 99 449 194
b 9 404 402 370 12
b 10 5 426 6 165
b 11 423 3 418 4
b 12 125 456 126 174
b 13 141 142 460 177
b 14 13 428 14 407
b 15 40 434 39 36
b 16 153 154 463 169
b 17 157 464 158 173
b 18 16 428 15 417
b 19 450 103 104 102 101
b 20 349 354 90 344
b 21 367 370 392 353
b 22 369 366 28 388
b 23 381 379 68 378
b 24 421 422 12 419
b 25 416 418 1 414
b 26 195 196 149 197
b 27 206 209 234 204
b 28 217 220 145 160
b 29 227 231 224 230
b 30 239 242 220 147
b 31 248 251 244 120
b 32 256 254 88 84
b 33 261 263 160 129
b 34 273 131 274 253
b 35 285 287 282 116
b 36 304 306 294 53
b 37 445 83 82 81 84
b 38 429 18 19 20 17
b 39 428 14 15 417 407
b 40 14 15 417 408 407
b 41 15 417 415 408 407
b 42 448 94 95 96 93
b 43 459 139 138 140 137
b 44 465 161 162 163 164
b 45 464 158 159 173 160
b 46 158 159 175 173 160
b 47 159 175 173 185 160
b 48 99 449 98 191 194
b 49 449 98 191 194 178
b 50 98 180 191 194 178
b 51 417 415 408 407 414
b 52 415 408 413 407 414
b 53 408 413 400 407 414
b 54 402 394 370 11 12
b 55 443 75 74 73 76
b 56 444 79 77 78 80
b 57 425 3 2 4 1
b 58 413 400 407 414 405
b 59 426 6 7 165 8
b 60 6 7 166 165 8
b 61 7 166 165 167 8
b 62 430 23 22 21 24
b 63 457 131 132 129 130
b 64 439 58 59 60 57
b 65 442 70 72 69 71
b 66 446 87 86 88 85
b 67 87 86 254 88 85
b 68 86 254 88 235 85
b 69 438 55 53 54 56
b 70 454 119 118 117 120
b 71 455 121 122 123 124
b 72 458 134 135 136 133
b 73 462 150 151 152 149
b 74 456 126 127 174 128
b 75 126 127 176 174 128
b 76 127 176 174 186 128
b 77 434 38 39 36 33
b 78 38 39 34 36 33
b 79 39 34 35 36 33
b 80 142 460 143 179 177
b 81 460 143 179 144 177
b 82 143 179 189 144 177
b 83 154 463 155 169 171
b 84 463 155 169 171 156
b 85 155 169 171 181 156
b 86 452 110 111 109 112
b 87 451 106 107 108 105
b 88 453 115 113 114 116
b 89 106 107 108 105 295
b 90 107 314 108 105 295
b 91 175 173 185 162 160
b 92 173 185 161 162 160
b 93 166 165 167 8 162
b 94 165 167 8 161 162
b 95 169 171 181 156 170
b 96 171 181 156 172 170
b 97 176 174 186 128 122
b 98 174 186 128 121 122
b 99 180 191 194 94 178
b 100 191 194 94 95 178
b 101 440 62 63 61 64
b 102 441 67 66 68 65
b 103 67 66 379 68 65
b 104 66 379 68 368 65
b 105 179 189 144 138 177
b 106 427 11 10 9 12
b 107 435 43 42 41 44
b 108 62 63 58 61 64
b 109 63 58 59 61 64
b 110 43 42 41 44 397
b 111 42 384 41 44 397
b 112 436 46 48 47 45
b 113 437 50 49 51 52
b 114 461 146 147 145 148
b 115 433 34 35 36 33
b 116 431 26 28 27 25
b 117 34 35 36 30 33
b 118 35 36 30 31 33
b 119 36 30 31 32 33
b 120 432 30 31 32 29
b 121 447 91 90 357 335
b 122 354 348 91 90 344
b 123 422 420 4 12 419
b 124 263 160 129 130 105
b 125 209 238 234 204 219
b 126 242 220 147 148 129
b 127 30 31 32 33 334 29
b 128 31 32 33 351 334 29
b 129 32 33 351 334 353 29
b 130 33 351 334 353 29 64
b 131 167 8 168 161 162 163
b 132 3 2 418 420 4 1
b 133 2 418 420 4 412 1
b 134 418 420 4 412 1 414
b 135 185 187 161 162 163 160
b 136 186 128 188 121 122 123
b 137 8 168 161 162 163 170
b 138 128 188 121 122 123 178
b 139 351 27 334 353 29 64
b 140 394 370 11 10 392 12
b 141 370 11 10 392 12 353
b 142 400 407 399 414 396 405
b 143 407 399 414 396 405 44
b 144 131 132 274 129 130 253
b 145 132 274 293 129 130 253
b 146 146 220 147 145 199 148
b 147 379 68 368 377 378 65
b 148 68 368 377 378 41 65
b 149 189 144 192 139 138 177
b 150 144 192 139 138 177 190
b 151 194 94 95 85 96 178
b 152 181 156 172 183 182 170
b 153 156 172 183 182 170 177
b 154 172 183 182 150 170 177
b 155 254 88 235 83 85 84
b 156 88 235 83 85 61 84
b 157 168 161 162 163 164 170 149
b 158 11 10 392 9 12 419 353
b 159 10 392 9 12 411 419 353
b 160 392 9 12 411 419 388 353
b 161 187 161 162 163 164 145 160
b 162 161 162 163 164 145 160 170 149
b 163 164 196 145 160 170 149
b 164 188 121 122 123 124 93 178
b 165 220 147 145 199 160 148 129
b 166 147 145 199 160 210 148 129
b 167 121 122 123 124 190 93 178
b 168 122 123 193 124 190 93 178
b 169 123 193 124 205 190 93 178
b 170 193 124 205 118 190 93 178
b 171 350 355 104 345 352
b 172 358 368 377 342 356
b 173 292 324 290 73 288
b 174 291 308 289 112 303
b 175 362 372 52 56 360
b 176 389 47 390 376 397
b 177 374 22 346 386 372
b 178 383 384 378 41 375
b 179 391 21 393 387 17
b 180 337 324 73 69 339
b 181 284 111 287 267 282
b 182 283 307 271 281 295
b 183 403 409 20 401 24
b 184 323 321 313 326 327
b 185 406 1 20 414 405
b 186 410 412 1 409 20
b 187 329 341 347 326 327
b 188 277 275 272 278 309
b 189 276 286 245 275 278
b 190 395 399 396 17 390
b 191 398 399 390 44 397
b 192 333 102 336 320 331
b 193 299 302 112 297 303
b 194 340 50 54 338 360
b 195 343 25 346 372 56
b 196 269 255 109 271 281
b 197 268 275 237 266 272
b 198 325 322 76 80 338
b 199 316 59 296 318 328
b 200 265 114 262 267 282
b 201 312 305 310 101 315
b 202 385 47 387 51 373
b 203 317 314 108 308 331
b 204 365 368 356 65 352
b 205 260 82 258 78 279
b 206 259 257 243 77 288
b 207 371 49 361 45 373
b 208 301 298 74 322 78
b 209 184 183 182 152 198
b 210 332 334 25 29 318
b 211 319 308 303 320 331
b 212 200 138 198 202 212
b 213 252 249 250 255 109
b 214 201 152 133 198 202
b 215 203 124 218 93 204
b 216 207 124 205 120 218
b 217 208 151 211 197 210
b 218 213 211 210 148 224
b 219 300 302 297 272 309
b 220 214 140 212 216 225
b 221 215 135 202 212 216
b 222 221 234 237 218 204
b 223 222 81 96 219 243
b 224 241 238 257 219 243
b 225 240 234 245 275 237
b 226 223 140 225 117 226
b 227 228 246 134 224 230
b 228 229 114 247 225 226
b 229 232 235 81 85 96
b 230 233 231 130 230 253
b 231 236 237 120 218 266
b 232 364 363 378 375 72
b 233 359 75 71 339 361
b 234 264 250 262 109 267
b 235 270 116 297 266 272
b 236 280 294 80 84 279
b 237 311 321 278 309 313
b 238 330 25 56 318 328
b 239 348 91 90 344 355 104
b 240 91 90 344 355 357 104 335
b 241 90 344 355 357 104 336 335
b 242 344 355 357 104 102 336 335
b 243 119 205 118 117 244 120
b 244 115 113 114 247 282 116
b 245 420 4 412 1 12 419 414
b 246 94 95 85 96 93 178 204
b 247 95 85 96 93 178 204 219
b 248 196 145 199 160 170 149 197
b 249 192 139 138 140 177 117 190
b 250 139 138 140 137 177 212 117 190
b 251 306 296 294 53 54 328
b 252 103 104 102 101 315 345
b 253 18 19 20 396 393 17
b 254 19 20 396 405 401 393 17
b 255 70 72 342 69 71 339
b 256 26 28 27 334 25 346
b 257 79 322 77 78 80 279
b 258 23 22 21 401 24 386
b 259 46 48 47 45 373 376
b 260 366 28 27 388 346 386
b 261 55 53 54 56 328 360
b 262 110 111 109 267 271 112
b 263 384 378 41 375 44 376 397
b 264 314 108 307 308 105 295 331
b 265 108 307 308 105 295 331 335
b 266 231 148 129 130 224 230 253
b 267 274 293 129 130 253 255 281
b 268 58 59 60 57 296 61 64
b 269 355 357 104 102 336 335 345 352
b 270 357 104 102 336 335 65 345 352
b 271 293 129 130 253 255 105 281 295
b 272 28 27 334 25 388 346 353 386
b 273 235 83 82 81 85 96 61 84
b 274 83 82 81 85 96 61 84 279
b 275 59 60 57 296 61 64 318 328
b 276 60 57 296 29 61 64 318 328
b 277 27 334 25 388 346 353 386 29 64
b 278 334 25 388 346 353 386 29 64 318
b 279 251 247 116 244 120 266
b 280 238 234 245 257 204 219 243
b 281 298 74 322 73 77 78 288
b 282 412 1 12 411 419 409 20 414
b 283 1 12 411 419 409 20 414 405
b 284 145 199 160 170 149 197 210 148 129
b 285 104 102 336 101 335 315 65 345 352
b 286 341 347 342 356 69 326 327
b 287 347 342 356 69 326 327 345 352
b 288 305 310 302 303 101 320 315
b 289 310 302 303 101 320 315 309 313
b 290 363 377 378 375 72 342 71
b 291 246 134 135 249 250 224 230
b 292 286 245 257 275 278 290 288
b 293 399 414 396 405 17 390 44 397
b 294 22 21 401 24 393 346 386 372
b 295 111 287 109 267 282 271 289 112
b 296 9 12 411 419 409 24 388 353
b 297 12 411 419 409 20 414 405 24 388 353
b 298 409 20 414 405 401 24 388 353
b 299 183 182 150 152 170 137 177 198
b 300 182 150 151 152 170 137 177 198
b 301 150 151 152 170 149 197 137 177 198
b 302 368 377 378 41 342 356 65 352
b 303 48 47 387 17 390 45 373 376
b 304 47 387 17 390 45 51 373 376 397
b 305 57 296 294 29 61 64 84 318 328
b 306 138 140 137 177 198 202 212 117 190
b 307 82 258 81 85 96 78 61 84 279
b 308 160 170 149 197 210 148 129 130 105
b 309 20 414 396 405 401 24 393 17 388 353
b 310 151 152 211 170 149 197 210 137 177 198
b 311 75 74 322 73 71 339 76 361
b 312 113 114 247 216 225 262 282 116
b 313 114 247 216 225 262 267 282 116 226
b 314 287 109 267 282 116 271 289 112 297
b 315 102 336 101 320 331 335 315 65 345 352
b 316 258 81 85 96 243 77 78 61 84 279
b 317 81 85 96 219 243 77 78 61 84 279
b 318 296 294 53 29 54 61 64 84 318 328
b 319 124 205 118 190 120 218 93 178 204
b 320 205 118 117 190 244 120 218 93 178 204
b 321 118 117 190 226 244 120 218 93 178 204
b 322 134 135 136 249 250 224 133 230 202
b 323 377 378 41 375 72 342 356 65 71 352
b 324 135 136 249 250 224 133 230 202 212 216
b 325 136 249 250 224 133 230 202 212 216 262
b 326 152 211 170 149 197 210 133 137 177 198 202
b 327 211 170 149 197 210 148 224 133 137 177 198 202
b 328 321 324 278 290 309 313 326 327
b 329 50 49 51 52 54 338 360 373
b 330 234 245 257 275 237 218 204 219 243
b 331 74 322 73 77 78 288 71 339 76 361
b 332 294 53 29 54 61 64 80 84 279 318 328
b 333 307 308 105 271 281 289 295 331 335
b 334 245 257 275 237 218 278 290 204 219 243 288
b 335 257 275 237 218 278 290 204 219 243 77 288
b 336 302 112 297 303 101 320 315 272 309 313
b 337 21 401 24 393 387 17 346 386 372 52
b 338 49 76 361 45 51 52 54 338 360 373
b 339 25 388 346 353 386 372 29 56 64 318 328
b 340 414 396 405 401 24 393 17 390 388 353 44 397
b 341 308 105 271 281 289 295 112 303 320 331 335
b 342 170 149 197 210 148 129 130 224 133 137 177 198 202 105
b 343 148 129 130 224 133 230 253 137 177 198 202 105
b 344 140 137 177 198 202 212 216 225 117 190 226
b 345 247 216 225 262 267 282 116 226 244 120 266
b 346 85 96 93 178 204 219 243 77 78 61 84 279
b 347 401 24 393 387 17 390 388 346 353 386 372 44 52 397
b 348 378 41 375 72 342 356 65 71 352 44 376 397
b 349 375 72 342 356 65 71 352 44 45 376 397
b 350 322 73 77 78 288 71 339 76 361 80 279 338
b 351 249 250 224 133 230 253 255 202 212 216 262 109
b 352 250 224 133 230 253 255 202 212 216 262 109 267
b 353 72 342 356 65 69 71 339 352 361 44 45 376 397
b 354 324 278 290 309 313 73 288 69 326 327 339
b 355 53 29 54 56 61 64 80 84 279 318 328 338 360
b 356 129 130 224 133 230 253 255 137 177 198 202 105 281 295
b 357 275 237 218 266 272 278 290 309 204 219 243 77 288
b 358 237 120 218 266 272 278 290 309 204 219 243 77 288
b 359 342 356 65 69 71 326 327 339 345 352 361 44 45 376 397
b 360 224 133 230 253 255 137 177 198 202 212 216 262 109 267 105 281 295
b 361 255 137 177 198 202 212 216 262 109 267 105 271 281 295
b 362 387 17 390 388 346 353 386 372 44 45 51 52 373 376 397
b 363 137 177 198 202 212 216 225 262 109 267 105 271 281 295 117 190 226
b 364 216 225 262 109 267 282 116 105 271 281 295 117 190 226 244 120 266
b 365 109 267 282 116 105 271 281 289 295 112 297 117 190 226 244 120 266
b 366 116 105 271 281 289 295 112 297 117 190 226 244 120 266 272
b 367 105 271 281 289 295 112 297 303 320 331 335 117 190 226 244 120 266 272
b 368 112 297 303 101 320 331 335 315 117 190 226 244 120 266 272 309 313
b 369 101 320 331 335 315 117 190 226 244 120 266 272 309 313 65 345 352
b 370 315 117 190 226 244 120 266 272 309 313 65 327 345 352
b 371 117 190 226 244 120 218 266 272 309 313 93 178 204 65 327 345 352
b 372 120 218 266 272 278 290 309 313 93 178 204 219 243 77 288 65 327 345 352
b 373 278 290 309 313 93 178 204 219 243 73 77 288 65 69 326 327 339 345 352
b 374 93 178 204 219 243 73 77 78 288 65 69 326 327 339 345 352 61 84 279
b 375 73 77 78 288 65 69 71 326 327 339 345 352 76 361 61 80 84 279 338
b 376 65 69 71 326 327 339 345 352 76 361 44 45 61 80 84 279 338 376 397
b 377 76 361 44 45 51 52 54 61 80 84 279 338 360 373 376 397
b 378 388 346 353 386 372 29 44 45 51 52 56 64 318 328 373 376 397
b 379 372 29 44 45 51 52 56 64 318 328 360 373 376 397
b 380 29 44 45 51 52 54 56 61 64 80 84 279 318 328 338 360 373 376 397
1 6
6 9
9 54
54 140
140 141
141 158
158 159
159 160
160 296
296 297
297 283
297 298
283 282
298 309
309 340
340 347
347 362
362 378
378 379
379 380
380 377
380 355
377 376
376 375
375 374
374 373
373 372
376 359
372 371
371 370
370 369
369 368
368 367
367 366
366 365
365 364
364 363
363 361
361 360
372 358
360 356
358 357
359 353
356 343
360 352
352 351
375 350
367 341
364 345
363 344
357 335
353 349
343 342
342 327
335 334
349 348
327 326
378 339
355 332
374 346
373 354
371 321
347 337
368 336
351 325
348 323
326 310
332 318
346 317
350 331
377 338
321 320
325 324
317 316
369 315
365 314
362 304
341 333
345 313
344 306
342 308
334 330
339 278
310 301
318 305
320 319
324 322
316 307
315 285
278 277
340 293
356 271
354 328
337 294
336 289
323 302
331 311
338 329
314 295
304 303
313 312
306 250
308 284
301 300
305 276
307 274
285 270
277 272
300 299
276 275
274 273
270 269
359 287
309 254
343 266
334 292
348 263
346 247
323 290
331 281
333 265
330 280
319 170
322 291
271 267
289 288
250 249
284 166
284 248
275 268
269 242
287 286
247 246
265 264
170 169
169 168
168 167
167 164
166 165
242 241
241 240
164 138
165 146
240 239
138 136
282 245
245 134
134 133
133 132
254 253
353 255
350 257
345 279
355 261
318 251
320 243
285 252
277 139
139 130
130 129
129 128
128 127
293 143
143 142
294 258
302 148
148 147
295 262
303 259
312 244
272 260
272 256
299 154
154 153
153 152
273 156
156 155
267 145
145 144
249 150
150 149
248 163
163 162
162 157
162 161
157 137
161 135
137 131
246 151
165 126
164 71
240 121
127 119
127 120
255 65
239 122
142 58
258 62
136 98
147 104
262 86
259 112
245 123
244 88
256 116
146 114
152 96
253 38
155 68
261 69
144 63
252 19
282 186
149 105
162 44
132 57
135 92
131 94
151 100
119 118
58 53
98 97
104 103
96 95
68 67
105 82
92 91
94 93
100 99
118 117
53 52
97 76
103 102
95 85
67 66
82 81
91 47
366 235
93 61
99 50
117 79
117 115
52 51
76 75
85 84
81 80
47 46
61 60
50 49
79 78
51 41
75 74
84 83
46 45
60 59
49 48
78 77
41 40
40 39
361 196
358 231
357 188
357 197
352 234
351 213
350 198
341 174
341 211
379 175
344 226
344 220
335 206
327 218
326 214
339 238
339 195
332 236
354 173
354 180
337 179
336 193
336 219
310 217
257 56
317 223
338 207
324 221
315 192
304 176
304 202
333 182
313 200
313 228
306 212
308 124
330 222
330 225
278 210
301 73
243 70
319 215
319 216
322 72
307 205
283 185
293 190
293 191
328 184
328 237
294 177
302 172
302 204
311 55
311 233
329 113
329 194
295 181
250 43
274 37
298 183
299 209
275 199
273 229
269 171
292 189
266 230
263 111
263 178
111 110
110 107
290 232
281 208
280 125
280 224
158 106
291 227
288 201
268 64
268 109
109 108
108 101
286 187
246 42
264 90
90 89
89 87
264 203
147 23
260 22
155 32
144 34
126 30
121 4
121 5
122 20
123 24
80 13
49 7
74 12
83 16
45 17
48 8
77 15
59 10
132 11
39 18
165 28
124 33
39 14
125 27
134 25
77 3
251 36
279 31
314 35
141 21
266 29
248 26
11 2
END

EOF
